120
150
33
67
54
87
96
53
80
37
33
90
60
46
60
24
56
78
74
25
51
71
69
53
53
53
97
75
71
49
87
24
100
26
49
100
80
67
35
38
78
35
99
51
35
92
23
93
56
23
20
69
53
62
35
46
84
20
20
71
60
90
37
20
93
40
84
50
31
69
84
27
53
97
40
50
60
60
40
81
40
27
69
44
37
93
56
79
71
60
90
67
33
61
49
40
33
60
60
47
43
35
62
53
78
69
78
54
60
92
71
79
100
60
90
92
79
100
51
99
79
92
